
Gurobi 5.6.0 (linux64) logging started Fri Feb 28 20:58:09 2014


Gurobi 5.6.0 (linux64) logging started Sat Mar  1 13:12:24 2014


Gurobi 5.6.0 (linux64) logging started Sat Mar  1 13:12:26 2014


Gurobi 5.6.0 (linux64) logging started Sat Mar  1 13:12:27 2014


Gurobi 5.6.0 (linux64) logging started Sat Mar  1 13:12:28 2014


Gurobi 5.6.0 (linux64) logging started Sat Mar  1 13:12:29 2014


Gurobi 5.6.0 (linux64) logging started Sat Mar  1 13:13:03 2014


Gurobi 5.6.0 (linux64) logging started Sat Mar  1 13:13:04 2014


Gurobi 5.6.0 (linux64) logging started Sat Mar  1 13:13:05 2014


Gurobi 5.6.0 (linux64) logging started Sat Mar  1 13:13:30 2014


Gurobi 5.6.0 (linux64) logging started Sat Mar  1 13:13:31 2014


Gurobi 5.6.0 (linux64) logging started Sat Mar  1 13:13:32 2014


Gurobi 5.6.0 (linux64) logging started Sat Mar  1 13:14:22 2014


Gurobi 5.6.0 (linux64) logging started Sat Mar  1 13:14:23 2014


Gurobi 5.6.0 (linux64) logging started Sat Mar  1 13:14:24 2014


Gurobi 5.6.0 (linux64) logging started Sat Mar  1 13:15:05 2014


Gurobi 5.6.0 (linux64) logging started Sat Mar  1 13:15:06 2014


Gurobi 5.6.0 (linux64) logging started Sat Mar  1 13:15:07 2014

